analyze/results_flowersnark/final_miplib_symretope_if_extended_generating_set_cpx_v802__settings_final_nosym_norestarts__1__neos-1109824.mps.gz.sol
solution status: optimal solution found
objective value:                                  378
C0014                                               1 	(obj:5)
C0285                                               1 	(obj:14)
C0324                                               1 	(obj:16)
C0379                                               1 	(obj:5)
C0391                                               1 	(obj:29)
C0476                                               1 	(obj:19)
C0605                                               1 	(obj:6)
C0690                                               1 	(obj:34)
C0772                                               1 	(obj:17)
C0780                                               1 	(obj:23)
C1006                                               1 	(obj:10)
C1104                                               1 	(obj:10)
C1144                                               1 	(obj:28)
C1188                                               1 	(obj:3)
C1210                                               1 	(obj:43)
C1224                                               1 	(obj:9)
C1258                                               1 	(obj:25)
C1288                                               1 	(obj:3)
C1300                                               1 	(obj:0)
C1318                                               1 	(obj:22)
C1331                                               1 	(obj:22)
C1390                                               1 	(obj:5)
C1435                                               1 	(obj:30)
