analyze/results_flowersnark/final_miplib_symretope_if_extended_generating_set_cpx_v802__settings_final_nosym_norestarts__1__neos-1109824.mps.gz.out
FILENAME:   /home/mcs001/s132664/testsets/IP/miplib2010/neos-1109824.mps.gz
SETTINGS:   settings_final_nosym_norestarts
TIMELIMIT:  7200
OUTPUTNAME: final_miplib_symretope_if_extended_generating_set_cpx_v802__settings_final_nosym_norestarts__1__
BINNAME:    bin/sbcs.linux.x86_64.gnu.opt.cpx
BASENAME:   neos-1109824.mps.gz
SEED:       1
@01 /home/mcs001/s132664/testsets/IP/miplib2010/neos-1109824.mps.gz ===========
@02 neos-1109824.mps.gz
@03 1686649338
SCIP version 8.0.2 [precision: 8 byte] [memory: block] [mode: optimized] [LP solver: CPLEX 20.1.0.0] [GitHash: 5f0473c]
Copyright (C) 2002-2022 Konrad-Zuse-Zentrum fuer Informationstechnik Berlin (ZIB)

Symretope propagation methods - (c) Jasper van Doornmalen, Christopher Hojny.
[GitHash: 2fd0484]

reading parameter file <../settings/settings_final_nosym_norestarts.set> ...

Changed settings:
limits/time = 7200
limits/restarts = 0
misc/usesymmetry = 0
randomization/randomseedshift = 1
constraints/orbisack/sepafreq = -1
constraints/symresack/sepafreq = -1
propagating/symmetry/detectsubgroups = FALSE
propagating/symmetry/usesymretopes = FALSE
propagating/symmetry/relabelsymretopes = 0
propagating/symmetry/ofsymcomptiming = 0
constraints/symretope/sepafreq = -1
constraints/symretope/peek = FALSE


solving problem ...

original problem has 1520 variables (1520 bin, 0 int, 0 impl, 0 cont) and 28979 constraints
presolving:
(round 1, exhaustive) 0 del vars, 19000 del conss, 0 add conss, 0 chg bounds, 0 chg sides, 0 chg coeffs, 0 upgd conss, 0 impls, 783 clqs
(round 2, exhaustive) 0 del vars, 19000 del conss, 0 add conss, 0 chg bounds, 0 chg sides, 0 chg coeffs, 9903 upgd conss, 0 impls, 783 clqs
   (0.7s) probing: 1000/1520 (65.8%) - 0 fixings, 0 aggregations, 51820 implications, 0 bound changes
   (0.7s) probing: 1001/1520 (65.9%) - 0 fixings, 0 aggregations, 51874 implications, 0 bound changes
   (0.7s) probing aborted: 1000/1000 successive useless probings
presolving (3 rounds: 3 fast, 3 medium, 3 exhaustive):
 0 deleted vars, 19000 deleted constraints, 0 added constraints, 0 tightened bounds, 0 added holes, 0 changed sides, 0 changed coefficients
 0 implications, 52657 cliques
presolved problem has 1520 variables (1520 bin, 0 int, 0 impl, 0 cont) and 9979 constraints
    783 constraints of type <setppc>
     76 constraints of type <linear>
   9120 constraints of type <logicor>
transformed objective value is always integral (scale: 1)
Presolving Time: 0.72

 time | node  | left  |LP iter|LP it/n|mem/heur|mdpt |vars |cons |rows |cuts |sepa|confs|strbr|  dualbound   | primalbound  |  gap   | compl. 
  0.9s|     1 |     0 |    38 |     - |    68M |   0 |1520 |  10k|9979 |   0 |  0 |  32 |   0 | 2.780000e+02 |      --      |    Inf | unknown
  1.2s|     1 |     0 |  1166 |     - |    69M |   0 |1520 |  10k|  10k|  28 |  1 |  32 |   0 | 2.780000e+02 |      --      |    Inf | unknown
  1.3s|     1 |     0 |  1233 |     - |    70M |   0 |1520 |  10k|  10k|  53 |  2 |  32 |   0 | 3.339000e+02 |      --      |    Inf | unknown
  1.5s|     1 |     0 |  1252 |     - |    72M |   0 |1520 |  10k|  10k|  65 |  3 |  32 |   0 | 3.393333e+02 |      --      |    Inf | unknown
  1.7s|     1 |     0 |  1281 |     - |    74M |   0 |1520 |  10k|  10k|  83 |  4 |  32 |   0 | 3.443333e+02 |      --      |    Inf | unknown
  1.8s|     1 |     0 |  1292 |     - |    75M |   0 |1520 |  10k|  10k|  91 |  5 |  32 |   0 | 3.460000e+02 |      --      |    Inf | unknown
  1.9s|     1 |     0 |  1309 |     - |    76M |   0 |1520 |  10k|  10k|  94 |  6 |  32 |   0 | 3.460000e+02 |      --      |    Inf | unknown
  2.1s|     1 |     0 |  1313 |     - |    78M |   0 |1520 |  10k|  10k| 102 |  7 |  32 |   0 | 3.460000e+02 |      --      |    Inf | unknown
  2.2s|     1 |     0 |  1339 |     - |    80M |   0 |1520 |9999 |  10k| 113 |  8 |  32 |   0 | 3.460000e+02 |      --      |    Inf | unknown
  2.4s|     1 |     0 |  1355 |     - |    81M |   0 |1520 |9999 |  10k| 121 |  9 |  32 |   0 | 3.460000e+02 |      --      |    Inf | unknown
  2.6s|     1 |     0 |  1387 |     - |    84M |   0 |1520 |9998 |  10k| 129 | 10 |  32 |   0 | 3.460000e+02 |      --      |    Inf | unknown
  2.7s|     1 |     0 |  1405 |     - |    85M |   0 |1520 |9997 |  10k| 138 | 11 |  32 |   0 | 3.460000e+02 |      --      |    Inf | unknown
  2.7s|     1 |     0 |  1420 |     - |    86M |   0 |1520 |9997 |  10k| 142 | 12 |  32 |   0 | 3.460000e+02 |      --      |    Inf | unknown
  2.7s|     1 |     0 |  1426 |     - |    87M |   0 |1520 |9997 |  10k| 146 | 13 |  32 |   0 | 3.460000e+02 |      --      |    Inf | unknown
  2.7s|     1 |     0 |  1463 |     - |    88M |   0 |1520 |9997 |  10k| 149 | 14 |  32 |   0 | 3.472083e+02 |      --      |    Inf | unknown
 time | node  | left  |LP iter|LP it/n|mem/heur|mdpt |vars |cons |rows |cuts |sepa|confs|strbr|  dualbound   | primalbound  |  gap   | compl. 
  2.8s|     1 |     0 |  1486 |     - |    89M |   0 |1520 |9997 |  10k| 151 | 15 |  32 |   0 | 3.478125e+02 |      --      |    Inf | unknown
  2.8s|     1 |     0 |  1489 |     - |    90M |   0 |1520 |9997 |  10k| 154 | 16 |  32 |   0 | 3.496250e+02 |      --      |    Inf | unknown
  2.8s|     1 |     0 |  1499 |     - |    91M |   0 |1520 |9996 |  10k| 155 | 17 |  32 |   0 | 3.496250e+02 |      --      |    Inf | unknown
  2.9s|     1 |     0 |  1509 |     - |    91M |   0 |1520 |9996 |  10k| 158 | 18 |  32 |   0 | 3.496250e+02 |      --      |    Inf | unknown
  2.9s|     1 |     0 |  1526 |     - |    93M |   0 |1520 |9996 |  10k| 160 | 19 |  32 |   0 | 3.497143e+02 |      --      |    Inf | unknown
  2.9s|     1 |     0 |  1539 |     - |    94M |   0 |1520 |9996 |  10k| 167 | 20 |  32 |   0 | 3.498723e+02 |      --      |    Inf | unknown
  2.9s|     1 |     0 |  1548 |     - |    94M |   0 |1520 |9995 |  10k| 173 | 22 |  32 |   0 | 3.503500e+02 |      --      |    Inf | unknown
  4.0s|     1 |     2 |  3242 |     - |    96M |   0 |1520 |9999 |  10k| 173 | 24 |  36 |  12 | 3.508842e+02 |      --      |    Inf | unknown
* 4.3s|     5 |     4 |  3321 | 443.5 |strongbr|   4 |1520 |9998 |  10k| 173 |  1 |  36 |  31 | 3.508842e+02 | 4.000000e+02 |  14.00%| unknown
* 5.7s|    16 |     7 |  3581 | 135.6 |strongbr|   8 |1520 |  10k|  10k| 173 |  1 |  96 | 159 | 3.512727e+02 | 3.920000e+02 |  11.59%|   3.51%
* 5.8s|    16 |     5 |  3594 | 136.5 |strongbr|   8 |1520 |  10k|  10k| 173 |  5 | 101 | 176 | 3.512727e+02 | 3.860000e+02 |   9.89%|   8.10%
*10.6s|    43 |     5 |  4595 |  72.6 |strongbr|  10 |1520 |8300 |  10k| 188 |  1 | 659 | 667 | 3.521889e+02 | 3.780000e+02 |   7.33%|  24.30%
 16.2s|   100 |     8 |  6356 |  48.6 |   123M |  15 |1520 |7839 |  10k| 253 |  1 |1024 |1111 | 3.583333e+02 | 3.780000e+02 |   5.49%|  46.45%
 23.5s|   200 |    16 |  8944 |  37.2 |   135M |  23 |1520 |8449 |  10k| 365 |  1 |1908 |1593 | 3.640000e+02 | 3.780000e+02 |   3.85%|  71.62%
 26.6s|   300 |    24 | 10402 |  29.6 |   136M |  27 |1520 |8579 |  10k| 387 |  1 |2325 |1762 | 3.640000e+02 | 3.780000e+02 |   3.85%|  74.47%
 time | node  | left  |LP iter|LP it/n|mem/heur|mdpt |vars |cons |rows |cuts |sepa|confs|strbr|  dualbound   | primalbound  |  gap   | compl. 
 30.9s|   400 |    36 | 12380 |  27.2 |   136M |  30 |1520 |8811 |  10k| 403 |  5 |2727 |1896 | 3.640000e+02 | 3.780000e+02 |   3.85%|  74.47%
 32.8s|   500 |    44 | 13832 |  24.6 |   137M |  33 |1520 |8941 |  10k| 410 |  5 |3052 |1995 | 3.640000e+02 | 3.780000e+02 |   3.85%|  74.47%
 35.3s|   600 |    46 | 15615 |  23.5 |   140M |  40 |1520 |9150 |  10k| 419 |  1 |3488 |2147 | 3.640000e+02 | 3.780000e+02 |   3.85%|  74.47%
 37.4s|   700 |    48 | 17081 |  22.2 |   141M |  40 |1520 |9331 |  10k| 424 |  1 |3956 |2259 | 3.640000e+02 | 3.780000e+02 |   3.85%|  74.47%
 39.3s|   800 |    52 | 18318 |  21.0 |   141M |  40 |1520 |9383 |  10k| 429 |  1 |4231 |2336 | 3.640000e+02 | 3.780000e+02 |   3.85%|  74.47%
 40.9s|   900 |    62 | 19711 |  20.2 |   141M |  40 |1520 |9331 |  10k| 432 |  2 |4438 |2419 | 3.648667e+02 | 3.780000e+02 |   3.60%|  75.02%
 42.8s|  1000 |    67 | 20873 |  19.3 |   142M |  40 |1520 |9667 |  10k| 440 |  0 |4875 |2513 | 3.653333e+02 | 3.780000e+02 |   3.47%|  75.31%
 44.2s|  1100 |    73 | 22024 |  18.6 |   142M |  40 |1520 |9847 |  10k| 453 |  3 |5151 |2564 | 3.656667e+02 | 3.780000e+02 |   3.37%|  75.52%
 45.8s|  1200 |    91 | 23520 |  18.3 |   142M |  40 |1520 |9449 |  10k| 462 |  2 |5279 |2619 | 3.678333e+02 | 3.780000e+02 |   2.76%|  77.14%
 47.4s|  1300 |   105 | 24990 |  18.0 |   142M |  40 |1520 |9312 |  10k| 468 |  0 |5487 |2683 | 3.685000e+02 | 3.780000e+02 |   2.58%|  77.92%
 49.3s|  1400 |   107 | 26357 |  17.7 |   142M |  42 |1520 |9180 |  10k| 477 |  0 |5642 |2751 | 3.686154e+02 | 3.780000e+02 |   2.55%|  78.43%
 50.9s|  1500 |   115 | 27352 |  17.2 |   143M |  42 |1520 |9025 |  10k| 497 |  2 |5829 |2800 | 3.688750e+02 | 3.780000e+02 |   2.47%|  81.93%
 52.0s|  1600 |   113 | 28306 |  16.7 |   144M |  42 |1520 |8985 |  10k| 501 |  2 |5987 |2833 | 3.690000e+02 | 3.780000e+02 |   2.44%|  82.01%
 53.0s|  1700 |   103 | 29039 |  16.2 |   144M |  42 |1520 |8972 |  10k| 503 |  0 |6115 |2863 | 3.691667e+02 | 3.780000e+02 |   2.39%|  83.68%
 54.2s|  1800 |    97 | 29854 |  15.7 |   144M |  42 |1520 |8942 |  10k| 505 |  0 |6235 |2896 | 3.703333e+02 | 3.780000e+02 |   2.07%|  84.42%
 time | node  | left  |LP iter|LP it/n|mem/heur|mdpt |vars |cons |rows |cuts |sepa|confs|strbr|  dualbound   | primalbound  |  gap   | compl. 
 55.1s|  1900 |    91 | 30607 |  15.3 |   144M |  42 |1520 |8900 |  10k| 512 |  1 |6315 |2913 | 3.709000e+02 | 3.780000e+02 |   1.91%|  84.78%
 56.3s|  2000 |    89 | 31274 |  14.9 |   144M |  42 |1520 |8870 |  10k| 515 |  1 |6419 |2944 | 3.717778e+02 | 3.780000e+02 |   1.67%|  86.59%
 57.4s|  2100 |    69 | 31904 |  14.5 |   144M |  42 |1520 |8931 |  10k| 520 |  0 |6581 |2975 | 3.720000e+02 | 3.780000e+02 |   1.61%|  86.73%
 58.5s|  2200 |    67 | 32615 |  14.1 |   144M |  42 |1520 |8866 |  10k| 522 |  1 |6651 |2993 | 3.723333e+02 | 3.780000e+02 |   1.52%|  87.72%
 59.8s|  2300 |    58 | 33426 |  13.9 |   147M |  42 |1520 |8835 |  10k| 533 |  0 |6719 |3015 | 3.730000e+02 | 3.780000e+02 |   1.34%|  88.62%
 60.8s|  2400 |    52 | 34045 |  13.5 |   148M |  42 |1520 |8819 |  10k| 541 |  2 |6790 |3034 | 3.735000e+02 | 3.780000e+02 |   1.20%|  89.25%
 62.3s|  2500 |    50 | 35007 |  13.4 |   149M |  42 |1520 |8860 |  10k| 545 |  3 |6954 |3080 | 3.739000e+02 | 3.780000e+02 |   1.10%|  90.35%
 63.2s|  2600 |    30 | 35500 |  13.1 |   149M |  49 |1520 |8859 |  10k| 547 |  0 |7026 |3088 | 3.740000e+02 | 3.780000e+02 |   1.07%|  92.57%
 64.5s|  2700 |    20 | 36125 |  12.8 |   150M |  53 |1520 |8933 |  10k| 556 |  0 |7162 |3113 | 3.740000e+02 | 3.780000e+02 |   1.07%|  92.95%

SCIP Status        : problem is solved [optimal solution found]
Solving Time (sec) : 65.56
Solving Nodes      : 2766
Primal Bound       : +3.78000000000000e+02 (5 solutions)
Dual Bound         : +3.78000000000000e+02
Gap                : 0.00 %
SCIP Status        : problem is solved [optimal solution found]
Total Time         :      65.65
  solving          :      65.56
  presolving       :       0.72 (included in solving)
  reading          :       0.09
  copying          :       0.27 (14 #copies) (minimal 0.01, maximal 0.03, average 0.02)
Original Problem   :
  Problem name     : neos-1109824
  Variables        : 1520 (1520 binary, 0 integer, 0 implicit integer, 0 continuous)
  Constraints      : 28979 initial, 28979 maximal
  Objective        : minimize, 1512 non-zeros (abs.min = 3, abs.max = 83)
Presolved Problem  :
  Problem name     : t_neos-1109824
  Variables        : 1520 (1520 binary, 0 integer, 0 implicit integer, 0 continuous)
  Constraints      : 9979 initial, 10162 maximal
  Objective        : minimize, 1512 non-zeros (abs.min = 3, abs.max = 83)
  Nonzeros         : 33288 constraint, 47168 clique table
Presolvers         :   ExecTime  SetupTime  Calls  FixedVars   AggrVars   ChgTypes  ChgBounds   AddHoles    DelCons    AddCons   ChgSides   ChgCoefs
  boundshift       :       0.00       0.00      0          0          0          0          0          0          0          0          0          0
  convertinttobin  :       0.00       0.00      0          0          0          0          0          0          0          0          0          0
  domcol           :       0.00       0.00      1          0          0          0          0          0          0          0          0          0
  dualagg          :       0.00       0.00      0          0          0          0          0          0          0          0          0          0
  dualcomp         :       0.00       0.00      0          0          0          0          0          0          0          0          0          0
  dualinfer        :       0.00       0.00      0          0          0          0          0          0          0          0          0          0
  dualsparsify     :       0.01       0.00      1          0          0          0          0          0          0          0          0          0
  gateextraction   :       0.01       0.00      1          0          0          0          0          0          0          0          0          0
  implics          :       0.00       0.00      3          0          0          0          0          0          0          0          0          0
  inttobinary      :       0.00       0.00      0          0          0          0          0          0          0          0          0          0
  qpkktref         :       0.00       0.00      0          0          0          0          0          0          0          0          0          0
  redvub           :       0.00       0.00      0          0          0          0          0          0          0          0          0          0
  sparsify         :       0.03       0.00      1          0          0          0          0          0          0          0          0          0
  stuffing         :       0.00       0.00      0          0          0          0          0          0          0          0          0          0
  trivial          :       0.00       0.00      3          0          0          0          0          0          0          0          0          0
  tworowbnd        :       0.00       0.00      0          0          0          0          0          0          0          0          0          0
  dualfix          :       0.00       0.00      3          0          0          0          0          0          0          0          0          0
  genvbounds       :       0.00       0.00      0          0          0          0          0          0          0          0          0          0
  probing          :       0.57       0.00      1          0          0          0          0          0          0          0          0          0
  pseudoobj        :       0.00       0.00      0          0          0          0          0          0          0          0          0          0
  symmetry         :       0.00       0.00      0          0          0          0          0          0          0          0          0          0
  vbounds          :       0.00       0.00      1          0          0          0          0          0          0          0          0          0
  knapsack         :       0.00       0.00      0          0          0          0          0          0          0          0          0          0
  setppc           :       0.00       0.00      3          0          0          0          0          0          0          0          0          0
  linear           :       0.06       0.01      6          0          0          0          0          0      19000          0          0          0
  logicor          :       0.01       0.00      3          0          0          0          0          0          0          0          0          0
  benders          :       0.00       0.00      0          0          0          0          0          0          0          0          0          0
  components       :       0.00       0.00      1          0          0          0          0          0          0          0          0          0
  root node        :          -          -      -        694          -          -        694          -          -          -          -          -
Constraints        :     Number  MaxNumber  #Separate #Propagate    #EnfoLP    #EnfoRelax  #EnfoPS    #Check   #ResProp    Cutoffs    DomReds       Cuts    Applied      Conss   Children
  benderslp        :          0          0          0          0       2435          0          0        179          0          0          0          0          0          0          0
  integral         :          0          0          0          0       2435          0          0        179          0          1       2275          0          0       5432       2770
  knapsack         :          0+        13          0      17907          0          0          0          0       1119          1       2683          0          0          0          0
  setppc           :        783+       884         22      27670          0          0          0        174      95537         75      30596          0          0          0          0
  linear           :         76+        77         22      27595          0          0          0          9      33439        291      28094          0          0          0          0
  logicor          :       9120+      9295         22      15510          0          0          0          9       6251        260       4143          1          1          0          0
  benders          :          0          0          0          0          0          0          0         10          0          0          0          0          0          0          0
  countsols        :          0          0          0          0          0          0          0         10          0          0          0          0          0          0          0
  components       :          0          0          0          0          0          0          0          0          0          0          0          0          0          0          0
Constraint Timings :  TotalTime  SetupTime   Separate  Propagate     EnfoLP     EnfoPS     EnfoRelax   Check    ResProp    SB-Prop
  benderslp        :       0.00       0.00       0.00       0.00       0.00       0.00       0.00       0.00       0.00       0.00
  integral         :      27.07       0.00       0.00       0.00      27.07       0.00       0.00       0.00       0.00       0.00
  knapsack         :       0.04       0.00       0.00       0.02       0.00       0.00       0.00       0.00       0.01       0.01
  setppc           :       0.36       0.00       0.00       0.15       0.00       0.00       0.00       0.00       0.02       0.18
  linear           :       0.60       0.01       0.03       0.30       0.00       0.00       0.00       0.00       0.08       0.18
  logicor          :       0.90       0.00       0.03       0.60       0.00       0.00       0.00       0.01       0.02       0.24
  benders          :       0.00       0.00       0.00       0.00       0.00       0.00       0.00       0.00       0.00       0.00
  countsols        :       0.00       0.00       0.00       0.00       0.00       0.00       0.00       0.00       0.00       0.00
  components       :       0.00       0.00       0.00       0.00       0.00       0.00       0.00       0.00       0.00       0.00
Propagators        : #Propagate   #ResProp    Cutoffs    DomReds
  dualfix          :          1          0          0          0
  genvbounds       :          0          0          0          0
  nlobbt           :          0          0          0          0
  obbt             :          0          0          0          0
  probing          :          0          0          0          0
  pseudoobj        :      14352          0          0         10
  redcost          :       7828          0          0      63099
  rootredcost      :          5          0          0        510
  symmetry         :          0          0          0          0
  vbounds          :       9603          0          0          0
Propagator Timings :  TotalTime  SetupTime   Presolve  Propagate    ResProp    SB-Prop
  dualfix          :       0.00       0.00       0.00       0.00       0.00       0.00
  genvbounds       :       0.01       0.00       0.00       0.00       0.00       0.00
  nlobbt           :       0.00       0.00       0.00       0.00       0.00       0.00
  obbt             :       0.00       0.00       0.00       0.00       0.00       0.00
  probing          :       0.57       0.00       0.57       0.00       0.00       0.00
  pseudoobj        :       0.04       0.00       0.00       0.04       0.00       0.00
  redcost          :       0.38       0.00       0.00       0.38       0.00       0.00
  rootredcost      :       0.01       0.00       0.00       0.01       0.00       0.00
  symmetry         :       0.00       0.00       0.00       0.00       0.00       0.00
  vbounds          :       0.03       0.00       0.00       0.02       0.00       0.00
Conflict Analysis  :       Time      Calls    Success    DomReds  Conflicts   Literals    Reconvs ReconvLits   Dualrays   Nonzeros   LP Iters   (pool size: [10000,10000])
  propagation      :       0.07        520        513          -       2064      118.5         93       31.9          -          -          -
  infeasible LP    :       0.02         21         21          -         82      129.2          2        8.5         19       75.5          0
  bound exceed. LP :       8.38       1599       1345          -       6923      100.7         62       34.9          0        0.0      16701
  strong branching :       0.00          0          0          -          0        0.0          0        0.0          -          -          0
  pseudo solution  :       0.00          0          0          -          0        0.0          0        0.0          -          -          -
  applied globally :       0.92          -          -          0       7204       54.7          -          -         19          -          -
  applied locally  :          -          -          -          0         19      274.2          -          -          0          -          -
Separators         :   ExecTime  SetupTime      Calls  RootCalls    Cutoffs    DomReds  FoundCuts ViaPoolAdd  DirectAdd    Applied ViaPoolApp  DirectApp      Conss
  cut pool         :       0.27          -        619         43          -          -       2970       1922          -          -          -          -          -    (maximal pool size:       1590)
  aggregation      :       0.25       0.00        163         22          0          0          0          0          0          0          0          0          0
  > cmir           :          -          -          -          -          -          -          -          0          0          0          0          0          -
  > flowcover      :          -          -          -          -          -          -          -          0          0          0          0          0          -
  > knapsackcover  :          -          -          -          -          -          -          -          0          0          0          0          0          -
  cgmip            :       0.00       0.00          0          0          0          0          0          0          0          0          0          0          0
  clique           :       0.05       0.00         22         22          0          0         48         54          0         42         42          0          0
  closecuts        :       0.00       0.00          0          0          0          0          0          0          0          0          0          0          0
  convexproj       :       0.00       0.00          0          0          0          0          0          0          0          0          0          0          0
  disjunctive      :       0.00       0.00          0          0          0          0          0          0          0          0          0          0          0
  eccuts           :       0.00       0.00          0          0          0          0          0          0          0          0          0          0          0
  gauge            :       0.00       0.00          0          0          0          0          0          0          0          0          0          0          0
  gomory           :       5.32       0.00        119         10          0          0       2927       1515        282        282        275          7          0
  > gomorymi       :          -          -          -          -          -          -          -        519        141         37         35          2          -
  > strongcg       :          -          -          -          -          -          -          -        996        141        245        240          5          -
  impliedbounds    :       0.25       0.00        163         22          0          0          0          0          0          0          0          0          0
  interminor       :       0.00       0.00          0          0          0          0          0          0          0          0          0          0          0
  intobj           :       0.00       0.00          0          0          0          0          0          0          0          0          0          0          0
  mcf              :       0.00       0.00          1          1          0          0          0          0          0          0          0          0          0
  minor            :       0.00       0.00          0          0          0          0          0          0          0          0          0          0          0
  mixing           :       0.00       0.00          0          0          0          0          0          0          0          0          0          0          0
  oddcycle         :       0.00       0.00          0          0          0          0          0          0          0          0          0          0          0
  rapidlearning    :       0.12       0.00          1          1          0          0          0          0          0          0          0          0          0
  rlt              :       0.00       0.00         10         10          0          0          0          0          0          0          0          0          0
  zerohalf         :       0.19       0.00        129         20          0          0        294        353         17        249        240          9          0
Cutselectors       :   ExecTime  SetupTime      Calls  RootCalls   Selected     Forced   Filtered  RootSelec   RootForc   RootFilt 
  hybrid           :       0.00       0.00        210         21        574          0       1648        173          0        217
Pricers            :   ExecTime  SetupTime      Calls       Vars
  problem variables:       0.00          -          0          0
Branching Rules    :   ExecTime  SetupTime   BranchLP  BranchExt   BranchPS    Cutoffs    DomReds       Cuts      Conss   Children
  allfullstrong    :       0.00       0.00          0          0          0          0          0          0          0          0
  cloud            :       0.00       0.00          0          0          0          0          0          0          0          0
  distribution     :       0.00       0.00          0          0          0          0          0          0          0          0
  fullstrong       :       0.00       0.00          0          0          0          0          0          0          0          0
  inference        :       0.00       0.00          0          0          0          0          0          0          0          0
  leastinf         :       0.00       0.00          0          0          0          0          0          0          0          0
  lookahead        :       0.00       0.00          0          0          0          0          0          0          0          0
  mostinf          :       0.00       0.00          0          0          0          0          0          0          0          0
  multaggr         :       0.00       0.00          0          0          0          0          0          0          0          0
  nodereopt        :       0.00       0.00          0          0          0          0          0          0          0          0
  pscost           :       0.00       0.00          0          0          0          0          0          0          0          0
  random           :       0.00       0.00          0          0          0          0          0          0          0          0
  relpscost        :      27.06       0.00       2435          0          0          1       2275          0       5783       2770
  vanillafullstrong:       0.00       0.00          0          0          0          0          0          0          0          0
Primal Heuristics  :   ExecTime  SetupTime      Calls      Found       Best
  LP solutions     :       0.00          -          -          0          0
  relax solutions  :       0.00          -          -          0          0
  pseudo solutions :       0.00          -          -          0          0
  strong branching :       0.03          -          -          4          4
  actconsdiving    :       0.00       0.00          0          0          0
  adaptivediving   :       0.02       0.00          1          0          0
  alns             :       0.42       0.00          4          0          0
  bound            :       0.00       0.00          0          0          0
  clique           :       0.03       0.00          1          0          0
  coefdiving       :       0.00       0.00          0          0          0
  completesol      :       0.00       0.00          0          0          0
  conflictdiving   :       0.04       0.00          1          0          0
  crossover        :       0.09       0.00          2          0          0
  dins             :       0.00       0.00          0          0          0
  distributiondivin:       0.12       0.00          1          0          0
  dps              :       0.00       0.00          0          0          0
  dualval          :       0.00       0.00          0          0          0
  farkasdiving     :       0.82       0.00          1          0          0
  feaspump         :       0.19       0.00          1          0          0
  fixandinfer      :       0.00       0.00          0          0          0
  fracdiving       :       0.03       0.00          1          0          0
  gins             :       0.01       0.00          0          0          0
  guideddiving     :       0.01       0.00          1          0          0
  indicator        :       0.00       0.00          0          0          0
  intdiving        :       0.00       0.00          0          0          0
  intshifting      :       0.00       0.00          0          0          0
  linesearchdiving :       0.00       0.00          1          0          0
  localbranching   :       0.00       0.00          0          0          0
  locks            :       0.01       0.00          1          0          0
  lpface           :       1.51       0.00          1          0          0
  mpec             :       0.00       0.00          0          0          0
  multistart       :       0.00       0.00          0          0          0
  mutation         :       0.00       0.00          0          0          0
  nlpdiving        :       0.00       0.00          0          0          0
  objpscostdiving  :       0.05       0.00          1          0          0
  octane           :       0.00       0.00          0          0          0
  ofins            :       0.00       0.00          0          0          0
  oneopt           :       0.00       0.00          3          0          0
  padm             :       0.00       0.00          0          0          0
  proximity        :       0.00       0.00          0          0          0
  pscostdiving     :       0.02       0.00          1          0          0
  randrounding     :       0.08       0.00        171          0          0
  rens             :       0.04       0.00          1          0          0
  reoptsols        :       0.00       0.00          0          0          0
  repair           :       0.00       0.00          0          0          0
  rins             :       0.28       0.00          6          1          0
  rootsoldiving    :       0.03       0.00          1          0          0
  rounding         :       0.25       0.00        738          0          0
  shiftandpropagate:       0.01       0.00          1          0          0
  shifting         :       0.16       0.00        257          0          0
  simplerounding   :       0.00       0.00          0          0          0
  subnlp           :       0.00       0.00          0          0          0
  trivial          :       0.00       0.00          2          0          0
  trivialnegation  :       0.00       0.00          0          0          0
  trustregion      :       0.00       0.00          0          0          0
  trysol           :       0.00       0.00          0          0          0
  twoopt           :       0.00       0.00          0          0          0
  undercover       :       0.00       0.00          0          0          0
  vbounds          :       0.02       0.00          1          0          0
  veclendiving     :       0.00       0.00          1          0          0
  zeroobj          :       0.00       0.00          0          0          0
  zirounding       :       0.04       0.00       1000          0          0
  other solutions  :          -          -          -          0          -
LP                 :       Time      Calls Iterations  Iter/call   Iter/sec  Time-0-It Calls-0-It    ItLimit
  primal LP        :       1.21        212          0       0.00       0.00       1.21        212
  dual LP          :      17.57       6384      33589       8.46    1911.79       1.47       2413
  lex dual LP      :       0.00          0          0       0.00          -
  barrier LP       :       0.00          0          0       0.00          -       0.00          0
  resolve instable :       0.00          0          0       0.00          -
  diving/probing LP:       2.87        350       3009       8.60    1047.87
  strong branching :      12.51       3130      43894      14.02    3507.51          -          -        357
    (at root node) :          -         12        564      47.00          -
  conflict analysis:       5.87       1793      16701       9.31    2847.26
B&B Tree           :
  number of runs   :          1
  nodes            :       2766 (1385 internal, 1381 leaves)
  feasible leaves  :          0
  infeas. leaves   :        220
  objective leaves :       1161
  nodes (total)    :       2766 (1385 internal, 1381 leaves)
  nodes left       :          0
  max depth        :         54
  max depth (total):         54
  backtracks       :        422 (15.3%)
  early backtracks :          0 (0.0%)
  nodes exc. ref.  :          0 (0.0%)
  delayed cutoffs  :          2
  repropagations   :        921 (1238 domain reductions, 2 cutoffs)
  avg switch length:       5.26
  switching time   :       2.10
Root Node          :
  First LP value   : +2.78000000000000e+02
  First LP Iters   :         37 (1623.52 Iter/sec)
  First LP Time    :       0.02
  Final Dual Bound : +3.50884210526316e+02
  Final Root Iters :       1547
  Root LP Estimate : +3.65943138302605e+02
Solution           :
  Solutions found  :          5 (4 improvements)
  First Solution   : +4.00000000000000e+02   (in run 1, after 5 nodes, 4.29 seconds, depth 6, found by <relaxation>)
  Gap First Sol.   :      14.00 %
  Gap Last Sol.    :       7.33 %
  Primal Bound     : +3.78000000000000e+02   (in run 1, after 43 nodes, 10.65 seconds, depth 7, found by <relaxation>)
  Dual Bound       : +3.78000000000000e+02
  Gap              :       0.00 %
Integrals          :      Total       Avg%
  primal-dual      :     669.66      10.21
  primal-ref       :          -          - (not evaluated)
  dual-ref         :          -          - (not evaluated)
written solution information to file <results/final_miplib_symretope_if_extended_generating_set_cpx_v802__settings_final_nosym_norestarts__1__neos-1109824.mps.gz.sol>
@04 1686649404
